NAME          RCONMILP
ROWS
 N  00000000
 E  00000001
 E  00000002
 E  00000003
 E  00000004
 E  00000005
 E  00000006
 L  00000007
 L  00000008
 L  00000009
 L  00000010
 L  00000011
 L  00000012
 L  00000013
 L  00000014
 L  00000015
 L  00000016
COLUMNS
    INT1      'MARKER'                 'INTORG'
    00000000  00000000 100000
    00000000  00000006 1
    00000000  00000007 1
    00000000  00000012 1
    00000001  00000000 200000
    00000001  00000006 1
    00000001  00000008 1
    00000001  00000012 1
    00000002  00000000 300000
    00000002  00000006 1
    00000002  00000009 1
    00000002  00000012 1
    00000003  00000000 400000
    00000003  00000006 1
    00000003  00000010 1
    00000003  00000012 1
    00000004  00000000 500000
    00000004  00000006 1
    00000004  00000011 1
    00000004  00000012 1
    00000005  00000000 600000
    00000005  00000001 1
    00000005  00000002 1
    00000005  00000006 1
    00000005  00000007 1
    00000005  00000013 1
    00000006  00000000 1200000
    00000006  00000001 1
    00000006  00000002 1
    00000006  00000006 1
    00000006  00000008 1
    00000006  00000013 1
    00000007  00000000 1800000
    00000007  00000001 1
    00000007  00000002 1
    00000007  00000006 1
    00000007  00000009 1
    00000007  00000013 1
    00000008  00000000 2400000
    00000008  00000001 1
    00000008  00000002 1
    00000008  00000006 1
    00000008  00000010 1
    00000008  00000013 1
    00000009  00000000 3000000
    00000009  00000001 1
    00000009  00000002 1
    00000009  00000006 1
    00000009  00000011 1
    00000009  00000013 1
    00000010  00000000 1433333
    00000010  00000001 1
    00000010  00000003 1
    00000010  00000004 1
    00000010  00000006 1
    00000010  00000007 1
    00000010  00000014 1
    00000011  00000000 2866666
    00000011  00000001 1
    00000011  00000003 1
    00000011  00000004 1
    00000011  00000006 1
    00000011  00000008 1
    00000011  00000014 1
    00000012  00000000 4300000
    00000012  00000001 1
    00000012  00000003 1
    00000012  00000004 1
    00000012  00000006 1
    00000012  00000009 1
    00000012  00000014 1
    00000013  00000000 5733333
    00000013  00000001 1
    00000013  00000003 1
    00000013  00000004 1
    00000013  00000006 1
    00000013  00000010 1
    00000013  00000014 1
    00000014  00000000 7166666
    00000014  00000001 1
    00000014  00000003 1
    00000014  00000004 1
    00000014  00000006 1
    00000014  00000011 1
    00000014  00000014 1
    00000015  00000000 833333
    00000015  00000002 1
    00000015  00000003 1
    00000015  00000005 1
    00000015  00000007 1
    00000015  00000015 1
    00000016  00000000 1666666
    00000016  00000002 1
    00000016  00000003 1
    00000016  00000005 1
    00000016  00000008 1
    00000016  00000015 1
    00000017  00000000 2500000
    00000017  00000002 1
    00000017  00000003 1
    00000017  00000005 1
    00000017  00000009 1
    00000017  00000015 1
    00000018  00000000 3333333
    00000018  00000002 1
    00000018  00000003 1
    00000018  00000005 1
    00000018  00000010 1
    00000018  00000015 1
    00000019  00000000 4166666
    00000019  00000002 1
    00000019  00000003 1
    00000019  00000005 1
    00000019  00000011 1
    00000019  00000015 1
    00000020  00000000 766666
    00000020  00000001 1
    00000020  00000003 1
    00000020  00000005 1
    00000020  00000006 1
    00000020  00000007 1
    00000020  00000016 1
    00000021  00000000 1533333
    00000021  00000001 1
    00000021  00000003 1
    00000021  00000005 1
    00000021  00000006 1
    00000021  00000008 1
    00000021  00000016 1
    00000022  00000000 2300000
    00000022  00000001 1
    00000022  00000003 1
    00000022  00000005 1
    00000022  00000006 1
    00000022  00000009 1
    00000022  00000016 1
    00000023  00000000 3066666
    00000023  00000001 1
    00000023  00000003 1
    00000023  00000005 1
    00000023  00000006 1
    00000023  00000010 1
    00000023  00000016 1
    00000024  00000000 3833333
    00000024  00000001 1
    00000024  00000003 1
    00000024  00000005 1
    00000024  00000006 1
    00000024  00000011 1
    00000024  00000016 1
    INT1      'MARKER'                 'INTEND'
RHS
    RHS1      00000001 3
    RHS1      00000002 2
    RHS1      00000003 3
    RHS1      00000004 1
    RHS1      00000005 2
    RHS1      00000006 4
    RHS1      00000007 1
    RHS1      00000008 1
    RHS1      00000009 1
    RHS1      00000010 1
    RHS1      00000011 1
    RHS1      00000012 1
    RHS1      00000013 1
    RHS1      00000014 1
    RHS1      00000015 1
    RHS1      00000016 1
BOUNDS
 UI BOUND     00000000       1
 UI BOUND     00000001       1
 UI BOUND     00000002       1
 UI BOUND     00000003       1
 UI BOUND     00000004       1
 UI BOUND     00000005       1
 UI BOUND     00000006       1
 UI BOUND     00000007       1
 UI BOUND     00000008       1
 UI BOUND     00000009       1
 UI BOUND     00000010       1
 UI BOUND     00000011       1
 UI BOUND     00000012       1
 UI BOUND     00000013       1
 UI BOUND     00000014       1
 UI BOUND     00000015       1
 UI BOUND     00000016       1
 UI BOUND     00000017       1
 UI BOUND     00000018       1
 UI BOUND     00000019       1
 UI BOUND     00000020       1
 UI BOUND     00000021       1
 UI BOUND     00000022       1
 UI BOUND     00000023       1
 UI BOUND     00000024       1
 LI BOUND     00000000       0
 LI BOUND     00000001       0
 LI BOUND     00000002       0
 LI BOUND     00000003       0
 LI BOUND     00000004       0
 LI BOUND     00000005       0
 LI BOUND     00000006       0
 LI BOUND     00000007       0
 LI BOUND     00000008       0
 LI BOUND     00000009       0
 LI BOUND     00000010       0
 LI BOUND     00000011       0
 LI BOUND     00000012       0
 LI BOUND     00000013       0
 LI BOUND     00000014       0
 LI BOUND     00000015       0
 LI BOUND     00000016       0
 LI BOUND     00000017       0
 LI BOUND     00000018       0
 LI BOUND     00000019       0
 LI BOUND     00000020       0
 LI BOUND     00000021       0
 LI BOUND     00000022       0
 LI BOUND     00000023       0
 LI BOUND     00000024       0
ENDATA
